
Gurobi 9.0.1 (mac64, gurobi_cl) logging started Sat Apr 11 09:34:44 2020

Using license file /Users/quannguyen/gurobi.lic
Set parameter LogFile to value gurobi.log
Academic license - for non-commercial use only

Gurobi Optimizer version 9.0.1 build v9.0.1rc0 (mac64)
Copyright (c) 2020, Gurobi Optimization, LLC

Read LP format model from file /var/folders/wm/cr9_rg9d40sbj5kr5lkgwrlh0000gn/T/345e772ad1d6461494a0cb76c91877b6-pulp.lp
Reading time = 0.18 seconds
OBJ: 69704 rows, 55761 columns, 208845 nonzeros
Optimize a model with 69704 rows, 55761 columns and 208845 nonzeros
Model fingerprint: 0xe3f807a7
Variable types: 0 continuous, 55761 integer (55760 binary)
Coefficient statistics:
  Matrix range     [1e+00, 2e+08]
  Objective range  [1e+00, 1e+00]
  Bounds range     [1e+00, 7e+07]
  RHS range        [1e+00, 6e+03]
Warning: Model contains large matrix coefficients
         Consider reformulating model or setting NumericFocus parameter
         to avoid numerical issues.
Presolve removed 40383 rows and 26442 columns
Presolve time: 0.26s
Presolved: 29321 rows, 29319 columns, 99154 nonzeros
Variable types: 0 continuous, 29319 integer (29318 binary)
Found heuristic solution: objective 7.365168e+07

Root simplex log...

Iteration    Objective       Primal Inf.    Dual Inf.      Time
   11917    1.1706210e+07   5.540927e+04   0.000000e+00      5s
   15529    1.3905230e+07   9.609456e+03   0.000000e+00     10s
   18727    1.7200228e+07   1.180439e+05   0.000000e+00     15s
   21254    2.1157601e+07   2.543744e+04   0.000000e+00     20s
